
******************************************************************************
This program contains Ipopt, a library for large-scale nonlinear optimization.
 Ipopt is released as open source code under the Eclipse Public License (EPL).
         For more information visit http://projects.coin-or.org/Ipopt
******************************************************************************

This is Ipopt version 3.12.4, running with linear solver mumps.
NOTE: Other linear solvers might be more efficient (see Ipopt documentation).

Number of nonzeros in equality constraint Jacobian...:        0
Number of nonzeros in inequality constraint Jacobian.:        0
Number of nonzeros in Lagrangian Hessian.............:        0

Total number of variables............................:    68921
                     variables with only lower bounds:        0
                variables with lower and upper bounds:        0
                     variables with only upper bounds:        0
Total number of equality constraints.................:        0
Total number of inequality constraints...............:        0
        inequality constraints with only lower bounds:        0
   inequality constraints with lower and upper bounds:        0
        inequality constraints with only upper bounds:        0

iter    objective    inf_pr   inf_du lg(mu)  ||d||  lg(rg) alpha_du alpha_pr  ls
   0 8.2398785e-004 0.00e+000 1.32e-002   0.0 0.00e+000    -  0.00e+000 0.00e+000   0
   1 8.0205620e-004 0.00e+000 1.31e-002 -11.0 1.32e-002    -  1.00e+000 1.00e+000f  1
   2 9.8594273e-007 0.00e+000 2.74e-004 -11.0 1.00e+000    -  1.00e+000 1.00e+000f  1

Number of Iterations....: 2

                                   (scaled)                 (unscaled)
Objective...............:  9.8594272699539113e-007   9.8594272699539113e-007
Dual infeasibility......:  2.7416332290622033e-004   2.7416332290622033e-004
Constraint violation....:  0.0000000000000000e+000   0.0000000000000000e+000
Complementarity.........:  0.0000000000000000e+000   0.0000000000000000e+000
Overall NLP error.......:  2.7416332290622033e-004   2.7416332290622033e-004


Number of objective function evaluations             = 3
Number of objective gradient evaluations             = 3
Number of equality constraint evaluations            = 0
Number of inequality constraint evaluations          = 0
Number of equality constraint Jacobian evaluations   = 0
Number of inequality constraint Jacobian evaluations = 0
Number of Lagrangian Hessian evaluations             = 0
Total CPU secs in IPOPT (w/o function evaluations)   =     36.363
Total CPU secs in NLP function evaluations           =    121.599

EXIT: Optimal Solution Found.
